LOC = { L1, L2, L3, L4, L5, L6, L7, L8, L9, L10, L11, L12, L13, L14, L15, L16, L17, L18, L19, L20, L21, L22, L23, L24, L25, L26, L27, L28, L29, L30, L31, L32, L33, L34, L35, L36, L37, L38, L39, L40, L41, L42, L43, L44, L45 };
base = L1;
d = [|                  to_enum(LOC,1): to_enum(LOC,2): to_enum(LOC,3): to_enum(LOC,4): to_enum(LOC,5): to_enum(LOC,6): to_enum(LOC,7): to_enum(LOC,8): to_enum(LOC,9): to_enum(LOC,10): to_enum(LOC,11): to_enum(LOC,12): to_enum(LOC,13): to_enum(LOC,14): to_enum(LOC,15): to_enum(LOC,16): to_enum(LOC,17): to_enum(LOC,18): to_enum(LOC,19): to_enum(LOC,20): to_enum(LOC,21): to_enum(LOC,22): to_enum(LOC,23): to_enum(LOC,24): to_enum(LOC,25): to_enum(LOC,26): to_enum(LOC,27): to_enum(LOC,28): to_enum(LOC,29): to_enum(LOC,30): to_enum(LOC,31): to_enum(LOC,32): to_enum(LOC,33): to_enum(LOC,34): to_enum(LOC,35): to_enum(LOC,36): to_enum(LOC,37): to_enum(LOC,38): to_enum(LOC,39): to_enum(LOC,40): to_enum(LOC,41): to_enum(LOC,42): to_enum(LOC,43): to_enum(LOC,44): to_enum(LOC,45): 
 |  to_enum(LOC,1):              0,              1,              2,              3,              4,              5,              6,              7,              8,               1,               2,               3,               4,               5,               6,               7,               8,               9,               2,               3,               3,               4,               5,               6,               7,               8,               9,               3,               4,               4,               5,               5,               6,               7,               8,               9,               4,               5,               5,               5,               6,               7,               8,               9,               9
 |  to_enum(LOC,2):              1,              0,              1,              2,              3,              4,              5,              6,              7,               2,               1,               2,               3,               4,               5,               6,               7,               8,               3,               2,               3,               3,               4,               5,               6,               7,               8,               4,               3,               4,               4,               5,               5,               6,               7,               8,               5,               4,               5,               5,               5,               6,               7,               8,               9
 |  to_enum(LOC,3):              2,              1,              0,              1,              2,              3,              4,              5,              6,               3,               2,               1,               2,               3,               4,               5,               6,               7,               3,               3,               2,               3,               3,               4,               5,               6,               7,               4,               4,               3,               4,               4,               5,               5,               6,               7,               5,               5,               4,               5,               5,               5,               6,               7,               8
 |  to_enum(LOC,4):              3,              2,              1,              0,              1,              2,              3,              4,              5,               4,               3,               2,               1,               2,               3,               4,               5,               6,               4,               3,               3,               2,               3,               3,               4,               5,               6,               5,               4,               4,               3,               4,               4,               5,               5,               6,               5,               5,               5,               4,               5,               5,               5,               6,               7
 |  to_enum(LOC,5):              4,              3,              2,              1,              0,              1,              2,              3,              4,               5,               4,               3,               2,               1,               2,               3,               4,               5,               5,               4,               3,               3,               2,               3,               3,               4,               5,               5,               5,               4,               4,               3,               4,               4,               5,               5,               6,               5,               5,               5,               4,               5,               5,               5,               6
 |  to_enum(LOC,6):              5,              4,              3,              2,              1,              0,              1,              2,              3,               6,               5,               4,               3,               2,               1,               2,               3,               4,               6,               5,               4,               3,               3,               2,               3,               3,               4,               6,               5,               5,               4,               4,               3,               4,               4,               5,               7,               6,               5,               5,               5,               4,               5,               5,               5
 |  to_enum(LOC,7):              6,              5,              4,              3,              2,              1,              0,              1,              2,               7,               6,               5,               4,               3,               2,               1,               2,               3,               7,               6,               5,               4,               3,               3,               2,               3,               3,               7,               6,               5,               5,               4,               4,               3,               4,               4,               8,               7,               6,               5,               5,               5,               4,               5,               5
 |  to_enum(LOC,8):              7,              6,              5,              4,              3,              2,              1,              0,              1,               8,               7,               6,               5,               4,               3,               2,               1,               2,               8,               7,               6,               5,               4,               3,               3,               2,               3,               8,               7,               6,               5,               5,               4,               4,               3,               4,               9,               8,               7,               6,               5,               5,               5,               4,               5
 |  to_enum(LOC,9):              8,              7,              6,              5,              4,              3,              2,              1,              0,               9,               8,               7,               6,               5,               4,               3,               2,               1,               9,               8,               7,               6,               5,               4,               3,               3,               2,               9,               8,               7,               6,               5,               5,               4,               4,               3,               9,               9,               8,               7,               6,               5,               5,               5,               4
 | to_enum(LOC,10):              1,              2,              3,              4,              5,              6,              7,              8,              9,               0,               1,               2,               3,               4,               5,               6,               7,               8,               1,               2,               3,               4,               5,               6,               7,               8,               9,               2,               3,               3,               4,               5,               6,               7,               8,               9,               3,               4,               4,               5,               5,               6,               7,               8,               9
 | to_enum(LOC,11):              2,              1,              2,              3,              4,              5,              6,              7,              8,               1,               0,               1,               2,               3,               4,               5,               6,               7,               2,               1,               2,               3,               4,               5,               6,               7,               8,               3,               2,               3,               3,               4,               5,               6,               7,               8,               4,               3,               4,               4,               5,               5,               6,               7,               8
 | to_enum(LOC,12):              3,              2,              1,              2,              3,              4,              5,              6,              7,               2,               1,               0,               1,               2,               3,               4,               5,               6,               3,               2,               1,               2,               3,               4,               5,               6,               7,               3,               3,               2,               3,               3,               4,               5,               6,               7,               4,               4,               3,               4,               4,               5,               5,               6,               7
 | to_enum(LOC,13):              4,              3,              2,              1,              2,              3,              4,              5,              6,               3,               2,               1,               0,               1,               2,               3,               4,               5,               4,               3,               2,               1,               2,               3,               4,               5,               6,               4,               3,               3,               2,               3,               3,               4,               5,               6,               5,               4,               4,               3,               4,               4,               5,               5,               6
 | to_enum(LOC,14):              5,              4,              3,              2,              1,              2,              3,              4,              5,               4,               3,               2,               1,               0,               1,               2,               3,               4,               5,               4,               3,               2,               1,               2,               3,               4,               5,               5,               4,               3,               3,               2,               3,               3,               4,               5,               5,               5,               4,               4,               3,               4,               4,               5,               5
 | to_enum(LOC,15):              6,              5,              4,              3,              2,              1,              2,              3,              4,               5,               4,               3,               2,               1,               0,               1,               2,               3,               6,               5,               4,               3,               2,               1,               2,               3,               4,               6,               5,               4,               3,               3,               2,               3,               3,               4,               6,               5,               5,               4,               4,               3,               4,               4,               5
 | to_enum(LOC,16):              7,              6,              5,              4,              3,              2,              1,              2,              3,               6,               5,               4,               3,               2,               1,               0,               1,               2,               7,               6,               5,               4,               3,               2,               1,               2,               3,               7,               6,               5,               4,               3,               3,               2,               3,               3,               7,               6,               5,               5,               4,               4,               3,               4,               4
 | to_enum(LOC,17):              8,              7,              6,              5,              4,              3,              2,              1,              2,               7,               6,               5,               4,               3,               2,               1,               0,               1,               8,               7,               6,               5,               4,               3,               2,               1,               2,               8,               7,               6,               5,               4,               3,               3,               2,               3,               8,               7,               6,               5,               5,               4,               4,               3,               4
 | to_enum(LOC,18):              9,              8,              7,              6,              5,              4,              3,              2,              1,               8,               7,               6,               5,               4,               3,               2,               1,               0,               9,               8,               7,               6,               5,               4,               3,               2,               1,               9,               8,               7,               6,               5,               4,               3,               3,               2,               9,               8,               7,               6,               5,               5,               4,               4,               3
 | to_enum(LOC,19):              2,              3,              3,              4,              5,              6,              7,              8,              9,               1,               2,               3,               4,               5,               6,               7,               8,               9,               0,               1,               2,               3,               4,               5,               6,               7,               8,               1,               2,               3,               4,               5,               6,               7,               8,               9,               2,               3,               3,               4,               5,               6,               7,               8,               9
 | to_enum(LOC,20):              3,              2,              3,              3,              4,              5,              6,              7,              8,               2,               1,               2,               3,               4,               5,               6,               7,               8,               1,               0,               1,               2,               3,               4,               5,               6,               7,               2,               1,               2,               3,               4,               5,               6,               7,               8,               3,               2,               3,               3,               4,               5,               6,               7,               8
 | to_enum(LOC,21):              3,              3,              2,              3,              3,              4,              5,              6,              7,               3,               2,               1,               2,               3,               4,               5,               6,               7,               2,               1,               0,               1,               2,               3,               4,               5,               6,               3,               2,               1,               2,               3,               4,               5,               6,               7,               3,               3,               2,               3,               3,               4,               5,               6,               7
 | to_enum(LOC,22):              4,              3,              3,              2,              3,              3,              4,              5,              6,               4,               3,               2,               1,               2,               3,               4,               5,               6,               3,               2,               1,               0,               1,               2,               3,               4,               5,               4,               3,               2,               1,               2,               3,               4,               5,               6,               4,               3,               3,               2,               3,               3,               4,               5,               6
 | to_enum(LOC,23):              5,              4,              3,              3,              2,              3,              3,              4,              5,               5,               4,               3,               2,               1,               2,               3,               4,               5,               4,               3,               2,               1,               0,               1,               2,               3,               4,               5,               4,               3,               2,               1,               2,               3,               4,               5,               5,               4,               3,               3,               2,               3,               3,               4,               5
 | to_enum(LOC,24):              6,              5,              4,              3,              3,              2,              3,              3,              4,               6,               5,               4,               3,               2,               1,               2,               3,               4,               5,               4,               3,               2,               1,               0,               1,               2,               3,               6,               5,               4,               3,               2,               1,               2,               3,               4,               6,               5,               4,               3,               3,               2,               3,               3,               4
 | to_enum(LOC,25):              7,              6,              5,              4,              3,              3,              2,              3,              3,               7,               6,               5,               4,               3,               2,               1,               2,               3,               6,               5,               4,               3,               2,               1,               0,               1,               2,               7,               6,               5,               4,               3,               2,               1,               2,               3,               7,               6,               5,               4,               3,               3,               2,               3,               3
 | to_enum(LOC,26):              8,              7,              6,              5,              4,              3,              3,              2,              3,               8,               7,               6,               5,               4,               3,               2,               1,               2,               7,               6,               5,               4,               3,               2,               1,               0,               1,               8,               7,               6,               5,               4,               3,               2,               1,               2,               8,               7,               6,               5,               4,               3,               3,               2,               3
 | to_enum(LOC,27):              9,              8,              7,              6,              5,              4,              3,              3,              2,               9,               8,               7,               6,               5,               4,               3,               2,               1,               8,               7,               6,               5,               4,               3,               2,               1,               0,               9,               8,               7,               6,               5,               4,               3,               2,               1,               9,               8,               7,               6,               5,               4,               3,               3,               2
 | to_enum(LOC,28):              3,              4,              4,              5,              5,              6,              7,              8,              9,               2,               3,               3,               4,               5,               6,               7,               8,               9,               1,               2,               3,               4,               5,               6,               7,               8,               9,               0,               1,               2,               3,               4,               5,               6,               7,               8,               1,               2,               3,               4,               5,               6,               7,               8,               9
 | to_enum(LOC,29):              4,              3,              4,              4,              5,              5,              6,              7,              8,               3,               2,               3,               3,               4,               5,               6,               7,               8,               2,               1,               2,               3,               4,               5,               6,               7,               8,               1,               0,               1,               2,               3,               4,               5,               6,               7,               2,               1,               2,               3,               4,               5,               6,               7,               8
 | to_enum(LOC,30):              4,              4,              3,              4,              4,              5,              5,              6,              7,               3,               3,               2,               3,               3,               4,               5,               6,               7,               3,               2,               1,               2,               3,               4,               5,               6,               7,               2,               1,               0,               1,               2,               3,               4,               5,               6,               3,               2,               1,               2,               3,               4,               5,               6,               7
 | to_enum(LOC,31):              5,              4,              4,              3,              4,              4,              5,              5,              6,               4,               3,               3,               2,               3,               3,               4,               5,               6,               4,               3,               2,               1,               2,               3,               4,               5,               6,               3,               2,               1,               0,               1,               2,               3,               4,               5,               4,               3,               2,               1,               2,               3,               4,               5,               6
 | to_enum(LOC,32):              5,              5,              4,              4,              3,              4,              4,              5,              5,               5,               4,               3,               3,               2,               3,               3,               4,               5,               5,               4,               3,               2,               1,               2,               3,               4,               5,               4,               3,               2,               1,               0,               1,               2,               3,               4,               5,               4,               3,               2,               1,               2,               3,               4,               5
 | to_enum(LOC,33):              6,              5,              5,              4,              4,              3,              4,              4,              5,               6,               5,               4,               3,               3,               2,               3,               3,               4,               6,               5,               4,               3,               2,               1,               2,               3,               4,               5,               4,               3,               2,               1,               0,               1,               2,               3,               6,               5,               4,               3,               2,               1,               2,               3,               4
 | to_enum(LOC,34):              7,              6,              5,              5,              4,              4,              3,              4,              4,               7,               6,               5,               4,               3,               3,               2,               3,               3,               7,               6,               5,               4,               3,               2,               1,               2,               3,               6,               5,               4,               3,               2,               1,               0,               1,               2,               7,               6,               5,               4,               3,               2,               1,               2,               3
 | to_enum(LOC,35):              8,              7,              6,              5,              5,              4,              4,              3,              4,               8,               7,               6,               5,               4,               3,               3,               2,               3,               8,               7,               6,               5,               4,               3,               2,               1,               2,               7,               6,               5,               4,               3,               2,               1,               0,               1,               8,               7,               6,               5,               4,               3,               2,               1,               2
 | to_enum(LOC,36):              9,              8,              7,              6,              5,              5,              4,              4,              3,               9,               8,               7,               6,               5,               4,               3,               3,               2,               9,               8,               7,               6,               5,               4,               3,               2,               1,               8,               7,               6,               5,               4,               3,               2,               1,               0,               9,               8,               7,               6,               5,               4,               3,               2,               1
 | to_enum(LOC,37):              4,              5,              5,              5,              6,              7,              8,              9,              9,               3,               4,               4,               5,               5,               6,               7,               8,               9,               2,               3,               3,               4,               5,               6,               7,               8,               9,               1,               2,               3,               4,               5,               6,               7,               8,               9,               0,               1,               2,               3,               4,               5,               6,               7,               8
 | to_enum(LOC,38):              5,              4,              5,              5,              5,              6,              7,              8,              9,               4,               3,               4,               4,               5,               5,               6,               7,               8,               3,               2,               3,               3,               4,               5,               6,               7,               8,               2,               1,               2,               3,               4,               5,               6,               7,               8,               1,               0,               1,               2,               3,               4,               5,               6,               7
 | to_enum(LOC,39):              5,              5,              4,              5,              5,              5,              6,              7,              8,               4,               4,               3,               4,               4,               5,               5,               6,               7,               3,               3,               2,               3,               3,               4,               5,               6,               7,               3,               2,               1,               2,               3,               4,               5,               6,               7,               2,               1,               0,               1,               2,               3,               4,               5,               6
 | to_enum(LOC,40):              5,              5,              5,              4,              5,              5,              5,              6,              7,               5,               4,               4,               3,               4,               4,               5,               5,               6,               4,               3,               3,               2,               3,               3,               4,               5,               6,               4,               3,               2,               1,               2,               3,               4,               5,               6,               3,               2,               1,               0,               1,               2,               3,               4,               5
 | to_enum(LOC,41):              6,              5,              5,              5,              4,              5,              5,              5,              6,               5,               5,               4,               4,               3,               4,               4,               5,               5,               5,               4,               3,               3,               2,               3,               3,               4,               5,               5,               4,               3,               2,               1,               2,               3,               4,               5,               4,               3,               2,               1,               0,               1,               2,               3,               4
 | to_enum(LOC,42):              7,              6,              5,              5,              5,              4,              5,              5,              5,               6,               5,               5,               4,               4,               3,               4,               4,               5,               6,               5,               4,               3,               3,               2,               3,               3,               4,               6,               5,               4,               3,               2,               1,               2,               3,               4,               5,               4,               3,               2,               1,               0,               1,               2,               3
 | to_enum(LOC,43):              8,              7,              6,              5,              5,              5,              4,              5,              5,               7,               6,               5,               5,               4,               4,               3,               4,               4,               7,               6,               5,               4,               3,               3,               2,               3,               3,               7,               6,               5,               4,               3,               2,               1,               2,               3,               6,               5,               4,               3,               2,               1,               0,               1,               2
 | to_enum(LOC,44):              9,              8,              7,              6,              5,              5,              5,              4,              5,               8,               7,               6,               5,               5,               4,               4,               3,               4,               8,               7,               6,               5,               4,               3,               3,               2,               3,               8,               7,               6,               5,               4,               3,               2,               1,               2,               7,               6,               5,               4,               3,               2,               1,               0,               1
 | to_enum(LOC,45):              9,              9,              8,              7,              6,              5,              5,              5,              4,               9,               8,               7,               6,               5,               5,               4,               4,               3,               9,               8,               7,               6,               5,               4,               3,               3,               2,               9,               8,               7,               6,               5,               4,               3,               2,               1,               8,               7,               6,               5,               4,               3,               2,               1,               0
 |];
n = 6;
wild = [0, 0, 1, 0, 0, 0, 0, 0, 0, 1, 4, 1, 1, 1, 6, 0, 0, 0, 1, 1, 1, 3, 1, 2, 1, 0, 0, 1, 2, 2, 2, 1, 0, 0, 0, 0, 5, 1, 1, 1, 1, 1, 0, 0, 0];
move = 1;
link = 20;
mind = 1;
cost = [0, -1, 2, -1, -1, -1, -1, -1, -1, 1, 3, 5, 7, 1, 3, -1, -1, -1, 2, 5, 0, 3, 6, 1, 4, -1, -1, 3, 7, 3, 7, 3, -1, -1, -1, -1, 4, 1, 6, 3, 0, 5, -1, -1, -1];
opcost = 4;
budget = 66;
